0a1,7
> (set-option :lookahead-split)
> (set-option :lookahead-score-deep)
> (set-option :split-num 64)
> (set-option :output-dir "splits_here")
> (set-option :test_cube_and_conquer true)
> (set-option :split-format-length "brief")
> (set-option :split-format smt2)
